(set-logic QF_NRA_ODE)
(declare-fun sy_env_1 () Real)
(declare-fun sx_env_1 () Real)
(declare-fun simtime () Real)
(declare-fun noise () Real [0.500000])
(declare-fun kappa_env_1 () Real)
(declare-fun Psi_env_1 () Real)
(declare-fun Psi_dot_env_1 () Real)
(declare-fun sy_env_1_0_0 () Real)
(declare-fun sy_env_1_0_t () Real)
(declare-fun sx_env_1_0_0 () Real)
(declare-fun sx_env_1_0_t () Real)
(declare-fun simtime_0_0 () Real)
(declare-fun simtime_0_t () Real)
(declare-fun noise_0_0 () Real [0.500000])
(declare-fun noise_0_t () Real [0.500000])
(declare-fun kappa_env_1_0_0 () Real)
(declare-fun kappa_env_1_0_t () Real)
(declare-fun Psi_env_1_0_0 () Real)
(declare-fun Psi_env_1_0_t () Real)
(declare-fun Psi_dot_env_1_0_0 () Real)
(declare-fun Psi_dot_env_1_0_t () Real)
(declare-fun time_0 () Real)
(declare-fun mode_0 () Real)
(define-ode flow_1 ((= d/dt[Psi_dot_env_1] (* 11.11 (+ (+ (* (/ (* -0.5 (+ (- (+ (* -2 0) (* 11 0)) (* 18 0.006046)) (* 9 -0.000322))) 33.8316) 11.11) (* (* (* (* 2 (/ (* 4.5 (+ (- (+ 0 (* 2 0)) (* 5 0.006046)) (* 4 -0.000322))) (* 33.8316 33.8316))) 11.11) 11.11) simtime)) (* (* (* (* (* (* 3 (/ (* -4.5 (+ (- (+ 0 0) (* 3 0.006046)) (* 3 -0.000322))) (* (* 33.8316 33.8316) 33.8316))) 11.11) 11.11) 11.11) simtime) simtime)))) (= d/dt[Psi_env_1] (* 11.11 kappa_env_1)) (= d/dt[kappa_env_1] (+ (+ (* (/ (* -0.5 (+ (- (+ (* -2 0) (* 11 0)) (* 18 0.006046)) (* 9 -0.000322))) 33.8316) 11.11) (* (* (* (* 2 (/ (* 4.5 (+ (- (+ 0 (* 2 0)) (* 5 0.006046)) (* 4 -0.000322))) (* 33.8316 33.8316))) 11.11) 11.11) simtime)) (* (* (* (* (* (* 3 (/ (* -4.5 (+ (- (+ 0 0) (* 3 0.006046)) (* 3 -0.000322))) (* (* 33.8316 33.8316) 33.8316))) 11.11) 11.11) 11.11) simtime) simtime))) (= d/dt[noise] 0) (= d/dt[simtime] 1) (= d/dt[sx_env_1] (+ (* 11.11 (cos Psi_env_1)) noise)) (= d/dt[sy_env_1] (+ (* 11.11 (sin Psi_env_1)) noise))))
(assert (<= -100 sy_env_1_0_0))
(assert (<= sy_env_1_0_0 100))
(assert (<= -100 sy_env_1_0_t))
(assert (<= sy_env_1_0_t 100))
(assert (<= -100 sx_env_1_0_0))
(assert (<= sx_env_1_0_0 100))
(assert (<= -100 sx_env_1_0_t))
(assert (<= sx_env_1_0_t 100))
(assert (<= 0 simtime_0_0))
(assert (<= simtime_0_0 5))
(assert (<= 0 simtime_0_t))
(assert (<= simtime_0_t 5))
(assert (<= -0.25 noise_0_0))
(assert (<= noise_0_0 0.25))
(assert (<= -0.25 noise_0_t))
(assert (<= noise_0_t 0.25))
(assert (<= -10 kappa_env_1_0_0))
(assert (<= kappa_env_1_0_0 10))
(assert (<= -10 kappa_env_1_0_t))
(assert (<= kappa_env_1_0_t 10))
(assert (<= -10 Psi_env_1_0_0))
(assert (<= Psi_env_1_0_0 10))
(assert (<= -10 Psi_env_1_0_t))
(assert (<= Psi_env_1_0_t 10))
(assert (<= -10 Psi_dot_env_1_0_0))
(assert (<= Psi_dot_env_1_0_0 10))
(assert (<= -10 Psi_dot_env_1_0_t))
(assert (<= Psi_dot_env_1_0_t 10))
(assert (<= 0 time_0 [0.000000]))
(assert (<= time_0 10 [0.000000]))
(assert (<= 1 mode_0))
(assert (<= mode_0 1))
(assert (and (and (= Psi_env_1_0_0 0) (= sy_env_1_0_0 0) (= sx_env_1_0_0 0) (= Psi_env_1_0_0 0) (= kappa_env_1_0_0 0) (= simtime_0_0 0)) (= mode_0 1) (= simtime_0_t (+ simtime_0_0 (* 1 time_0))) (= noise_0_t (+ noise_0_0 (* 0 time_0))) (= [Psi_dot_env_1_0_t Psi_env_1_0_t kappa_env_1_0_t noise_0_t simtime_0_t sx_env_1_0_t sy_env_1_0_t] (integral 0. time_0 [Psi_dot_env_1_0_0 Psi_env_1_0_0 kappa_env_1_0_0 noise_0_0 simtime_0_0 sx_env_1_0_0 sy_env_1_0_0] flow_1)) (= mode_0 1) (= mode_0 1) (> simtime_0_t 4)))
(check-sat)
(exit)
